c Random 4-CNF over 30 variables and 120 clauses
c Generated with `cnfgen`
c (C) 2012-2016 Massimo Lauria <lauria.massimo@gmail.com>
c https://massimolauria.github.io/cnfgen
c
c COMMAND LINE: cnfgen --output tmp-4-30-120.dimacs --output-format dimacs randkcnf 4 30 120
c
c sdimacs generated by gen-sdimacs
c
p cnf 30 120
e 16 17 18 19 20 21 22 23 24 25 26 27 28 29 30 0
r 0.37 1 2 3 4 5 6 7 8 9 10 11 12 13 14 15 0
4 5 -25 26 0
-2 5 -22 26 0
-10 17 24 -29 0
-3 4 -17 29 0
2 17 21 30 0
1 -6 -8 -27 0
-5 15 22 -26 0
-1 11 -15 30 0
-1 -7 12 18 0
-3 8 -16 -19 0
13 16 23 -27 0
-1 7 -18 29 0
3 7 28 -29 0
6 -14 25 -27 0
-5 -9 -14 25 0
-3 15 25 -26 0
19 -22 -28 29 0
-4 -18 -19 25 0
-6 18 19 28 0
-5 -18 22 -23 0
12 -16 -17 -25 0
-4 -7 15 16 0
-10 12 -13 -25 0
-5 -22 24 28 0
-12 15 22 -28 0
-13 15 -22 24 0
1 2 17 -30 0
-7 -12 -24 -27 0
-8 -16 25 27 0
4 -6 -10 -15 0
16 24 27 28 0
-16 -17 -25 -26 0
2 -3 19 -24 0
-12 20 -21 28 0
-2 18 19 24 0
2 -18 -20 26 0
-4 6 14 17 0
3 11 -19 -20 0
-14 16 22 -29 0
-2 13 20 -21 0
-2 11 -20 29 0
6 -11 22 27 0
-20 -21 -25 -28 0
16 -18 21 -28 0
-1 -15 20 -29 0
1 -4 -10 28 0
-6 -9 -13 -26 0
-9 -13 24 -25 0
-2 5 9 21 0
1 14 -18 -24 0
3 -7 20 -30 0
2 6 9 11 0
14 -17 18 21 0
2 11 -22 -23 0
-4 -8 24 -28 0
7 12 -18 -26 0
1 4 24 27 0
-6 10 21 -22 0
14 16 -19 21 0
7 19 21 -30 0
1 -13 -19 28 0
5 12 -13 27 0
5 -10 -21 26 0
-5 -7 15 18 0
7 -17 -24 -26 0
10 -19 -20 28 0
-13 -24 -25 -27 0
5 7 21 -27 0
16 19 -22 29 0
-1 -4 19 28 0
6 -10 -19 -30 0
1 19 -22 30 0
1 9 -16 28 0
-2 6 14 -27 0
-10 17 28 30 0
2 5 -12 25 0
2 15 -22 29 0
5 -8 -9 -18 0
11 -17 25 -26 0
-3 -9 -14 -23 0
-14 15 -25 -30 0
-5 -8 -25 27 0
-3 11 15 23 0
6 17 -20 24 0
1 -5 -7 -29 0
1 -5 20 -25 0
-2 13 -14 -17 0
-13 -18 -21 -25 0
5 -8 -11 15 0
5 17 -28 29 0
-5 14 -15 18 0
-6 -12 19 -30 0
4 14 16 -22 0
-9 15 -18 -25 0
-6 12 -19 20 0
-6 10 17 -21 0
1 -8 16 28 0
5 -11 21 -23 0
6 -9 -11 21 0
7 -17 24 -27 0
-6 -11 12 25 0
10 11 -22 29 0
4 16 23 30 0
3 5 21 29 0
10 12 17 -30 0
1 -7 19 -21 0
3 8 -12 -29 0
7 -12 -13 -28 0
2 -3 -15 16 0
3 12 13 -23 0
-2 -13 16 22 0
14 -15 -21 -22 0
-7 -16 24 -29 0
4 -12 -13 24 0
-15 -17 18 -20 0
1 -6 -8 -15 0
1 2 -4 16 0
-7 14 25 -30 0
-13 -17 20 -21 0
-1 8 -13 -20 0
